objective value:                                    0
delta[0,7]*                                        20 	(obj:0)
transfer_mu[0,0,6]*                   2.3121394004423 	(obj:0)
mu[0,7,170]*                         13.7880386847148 	(obj:0)
mu[0,7,172]*                         2.19513160900526 	(obj:0)
mu[0,7,173]*                         1.70469030583766 	(obj:0)
